
<<< setup


<<< generate

CPXPARAM_Simplex_Tolerances_Optimality           0.001
CPXPARAM_Simplex_Tolerances_Feasibility          0.001
CPXPARAM_TimeLimit                               3600
CPXPARAM_Threads                                 8
CPXPARAM_MIP_Tolerances_AbsMIPGap                0.001
CPXPARAM_MIP_Tolerances_MIPGap                   0.001
CPXPARAM_MIP_Tolerances_Integrality              0.001
CPXPARAM_MIP_Display                             4
CPXPARAM_MIP_PolishAfter_Solutions               1
Tried aggregator 2 times.
MIQCP Presolve eliminated 2 rows and 2 columns.
Aggregator did 1 substitutions.
Reduced MIQCP has 70 rows, 198 columns, and 331 nonzeros.
Reduced MIQCP has 0 binaries, 32 generals, 0 SOSs, and 0 indicators.
Reduced MIQCP has 3 quadratic constraints.
Presolve time = 0.02 sec. (0.14 ticks)
MIP emphasis: balance optimality and feasibility.
MIP search method: dynamic search.
Parallel mode: deterministic, using up to 8 threads.
Tried aggregator 1 time.
LP Presolve eliminated 69 rows and 197 columns.
Aggregator did 1 substitutions.
All rows and columns eliminated.
Presolve time = 0.00 sec. (0.05 ticks)
Initializing dual steep norms . . .
Root relaxation solution time = 0.00 sec. (0.09 ticks)

        Nodes                                         Cuts/
   Node  Left     Objective  IInf  Best Integer    Best Bound    ItCnt     Gap

      0     0     4634.0154     0                                   22         
      0     0     4634.0154     0                     Cone: 2       37         
      0     0     4634.0154     0                     Cone: 4       53         
      0     0     4634.0154     0                     Cone: 6       69         
      0     0     4634.0154     1                     Cone: 8       84         
      0     0     4634.0154     2                    Cone: 10       97         
      0     0     4634.0154     2                    Cone: 12      112         
      0     0     6032.6218     2                    Cone: 78      206         
      0     0     6032.6218    27                   Cone: 141      273         
      0     0     6032.6218    32                   Cone: 205      342         
      0     0     6032.6218    31                   Cone: 269      405         
      0     0     6032.6218    32                   Cone: 333      468         
      0     0     6032.6218    32                   Cone: 397      531         
      0     0     6032.6218    32                   Cone: 461      543         
      0     0     6032.6218    32                   Cone: 525      554         
      0     0     6032.6218    32                   Cone: 589      563         
      0     0     6032.6218    32                   Cone: 653      568         
      0     0     6032.6218    32                   Cone: 717      574         
      0     0     6032.6218    32                   Cone: 781      579         
      0     0     6032.6218    32                   Cone: 845      583         
      0     0     6032.6218    32                   Cone: 909      587         
      0     0     6032.6218    32                   Cone: 973      591         
      0     0     6032.6218    32                  Cone: 1037      595         
      0     0     6032.6218    32                   6032.6218      608         
*     0+    0                         6042.5858     6032.6218             0.16%
Found incumbent of value 6042.585780 after 0.05 sec. (23.16 ticks)

Starting condition for polishing reached (PolishAfterIntSol).
Starting solution polishing.

      0     2     6032.6218    32     6042.5858     6032.6218      621    0.16%
Elapsed time = 0.06 sec. (26.59 ticks, tree = 0.01 MB, solutions = 1)
      1     3     6032.8033    31     6042.5858     6032.6218      637    0.16%
                                                    Cone: 186                  
      2     3     6040.0818    31     6042.5858     6032.6218      636    0.16%
      3     4     6032.8040    30     6042.5858     6032.6218      655    0.16%
      4     4     6032.8033    31     6042.5858     6032.6218      655    0.16%
      5     6     6040.2176    29     6042.5858     6032.8033      688    0.16%
      6     7     6032.9897    30     6042.5858     6032.8033      706    0.16%
      7     8     6032.9908    30     6042.5858     6032.8033      725    0.16%
      8     9     6040.2152    30     6042.5858     6032.8033      742    0.16%
      9     9     6040.3560    29     6042.5858     6032.8033      742    0.16%
     10    10     6040.3557    29     6042.5858     6032.8033      762    0.16%
Elapsed time = 63.41 sec. (107932.04 ticks, tree = 0.01 MB, solutions = 2)
     11    12     6033.1825    29     6042.5858     6032.9908      798    0.16%
     12    13     6033.1832    28     6042.5858     6032.9908      818    0.16%
     13    14     6033.3807    28     6042.5858     6032.9908      837    0.16%
     14    15     6033.3814    27     6042.5858     6033.1825      855    0.16%
     15    17     6040.5002    27     6042.5858     6033.1825      895    0.16%
     16    16     6033.5850    27     6042.5858     6033.1825      876    0.16%
     17    16     6040.4995    28     6042.5858     6033.1825      876    0.16%
     18    17     6033.5847    27     6042.5858     6033.1825      893    0.16%
     19    19     6040.6474    26     6042.5858     6033.1825      935    0.16%
     20    19     6033.7957    25     6042.5858     6033.1825      933    0.16%
Elapsed time = 116.75 sec. (226798.49 ticks, tree = 0.01 MB, solutions = 2)
     21    21     6040.6481    26     6042.5858     6033.3807      972    0.15%
     22    23     6040.8000    26     6042.5858     6033.3814     1011    0.15%
     23    23     6034.0130    25     6042.5858     6033.3814     1010    0.15%
     24    24     6033.7964    25     6042.5858     6033.5847     1029    0.15%
     25    26     6040.9576    25     6042.5858     6033.5847     1070    0.15%
     26    27     6034.0133    25     6042.5858     6033.5847     1085    0.15%
     28    28     6034.2374    24     6042.5858     6033.5847     1107    0.15%
     29    29     6040.9583    24     6042.5858     6033.5847     1125    0.15%
     30    31     6041.1203    24     6042.5858     6033.7964     1161    0.15%
     31    31     6034.4691    23     6042.5858     6033.7964     1163    0.15%
Elapsed time = 174.48 sec. (357257.44 ticks, tree = 0.01 MB, solutions = 2)
     32    32     6034.2381    23     6042.5858     6034.0130     1183    0.14%
     33    34     6034.7085    21     6042.5858     6034.0133     1222    0.14%
     35    36     6041.4625    22     6042.5858     6034.0133     1261    0.14%
     36    35     6041.1211    23     6042.5858     6034.0133     1241    0.14%
     38    36     6034.9559    21     6042.5858     6034.0133     1261    0.14%
     39    40     6041.2893    22     6042.5858     6034.2381     1340    0.14%
     40    40     6034.7092    21     6042.5858     6034.2381     1341    0.14%
     41    41     6041.6416    21     6042.5858     6034.2381     1360    0.14%
     42    43     6034.9566    21     6042.5858     6034.4698     1400    0.13%
     44    44     6035.2122    19     6042.5858     6034.4698     1421    0.13%
Elapsed time = 244.38 sec. (486067.75 ticks, tree = 0.01 MB, solutions = 2)
     45    45     6041.6431    20     6042.5858     6034.4698     1436    0.13%
     46    47     6035.4773    19     6042.5858     6034.7092     1482    0.13%
     48    48     6035.2128    19     6042.5858     6034.9559     1497    0.13%
     49    49     6042.0217    19     6042.5858     6034.9559     1521    0.13%
     50    51     6041.8294    19     6042.5858     6034.9566     1559    0.13%
     51    51     6035.4779    18     6042.5858     6034.9566     1562    0.13%
     52    52     6035.7519    18     6042.5858     6034.9566     1584    0.13%
     53    54     6035.7525    17     6042.5858     6035.2128     1624    0.12%
     55    55     6036.0364    17     6042.5858     6035.2128     1641    0.12%
     56    56     6042.2224    17     6042.5858     6035.2128     1669    0.12%
Elapsed time = 303.95 sec. (608285.89 ticks, tree = 0.02 MB, solutions = 2)
     57    55     6042.2217    18     6042.5858     6035.2128     1644    0.12%
     58    56     6036.0369    17     6042.5858     6035.2128     1663    0.12%
     59    58     6042.4291    17     6042.5858     6035.4773     1702    0.12%
     60    58     6036.3313    16     6042.5858     6035.4773     1702    0.12%
     61    61     6042.4298    16     6042.5858     6035.7519     1766    0.11%
     62    63     6036.6377    14     6042.5858     6035.7525     1803    0.11%
     63    61        cutoff           6042.5858     6035.7525     1803    0.11%
     64    64     6036.3321    16     6042.5858     6036.0364     1825    0.11%
     65    63        cutoff           6042.5858     6036.0364     1843    0.11%
     66    65     6036.6384    14     6042.5858     6036.0369     1878    0.11%
Elapsed time = 355.83 sec. (712403.77 ticks, tree = 0.02 MB, solutions = 2)
     68    63        cutoff           6042.5858     6036.0369     1914    0.11%

Root node processing (before b&c):
  Real time             =    0.06 sec. (23.17 ticks)
Parallel b&c, 8 threads:
  Real time             =  369.27 sec. (740026.08 ticks)
  Sync time (average)   =  244.66 sec.
  Wait time (average)   =    0.00 sec.
                          ------------
Total (root+branch&cut) =  369.33 sec. (740049.25 ticks)

<<< solve


OBJECTIVE: 6042.586
X*: [-2.7428 2.7428 -2.7428 2.7428 -2.7428 2.7428 -2.7428 2.7428 -2.7428 2.7428
     -2.7428 2.7428 -2.7428 2.7428 -2.7428 2.7428 -2.7428 2.7428 -2.7428 2.7428
     -2.7428 2.7428 -2.7428 2.7428 -2.7428 2.7428 -2.7428 2.7428 -2.7428 2.7428
     -2.7428 2.7428] Z*: [-3 3 -3 3 -3 3 -3 3 -3 3 -3 3 -3 3 -3 3 -3 3 -3 3 -3 3 -3 3 -3 3 -3 3 -3 3
     -3 3]
f*:6042.585765123

<<< post process


<<< done

